N = 5;
Capacity = 12;
Demand = [1, 3, 7, 6, 5];
Distance = [|
  0, 28, 28, 24, 11, 39
| 28, 0, 41, 5, 20, 67
| 28, 41, 0, 37, 25, 43
| 24, 5, 37, 0, 15, 63
| 11, 20, 25, 15, 0, 48
| 39, 67, 43, 63, 48, 0
|];
